data;
param n:=50;
param w:=1 205 2 214 3 -161 4 89 5 168 6 -226 7 -5 8 -177 9 -147 10 212 11 -181 12 -145 13 201 14 90 15 -178 16 -128 17 -46 18 158 19 27 20 -205 21 15 22 196 23 66 24 -220 25 84 26 -210 27 -78 28 -155 29 -143 30 131 31 -225 32 158 33 -80 34 144 35 -124 36 86 37 -26 38 -40 39 -54 40 166 41 175 42 158 43 -148 44 212 45 135 46 -126 47 171 48 166 49 -37 50 -162;
